
(set-logic HORN)
(define-fun Z_1951 () Int 0)
(define-fun S_436 ((x Int)) Int (+ x 1))
(define-fun Z_1948 () Int 0)
(define-fun S_435 ((x Int)) Int (+ x 1))
(declare-fun diseqInt (Int Int) Bool)
(declare-fun unS_647 (Int Int) Bool)
(declare-fun isZ_403 (Int) Bool)
(declare-fun isS_403 (Int) Bool)
(assert (forall ((x_54395 Int))
	(unS_647 x_54395 (S_436 x_54395))))
(assert (isZ_403 Z_1951))
(assert (forall ((x_54397 Int))
	(isS_403 (S_436 x_54397))))
(assert (forall ((x_54398 Int))
	(diseqInt Z_1951 (S_436 x_54398))))
(assert (forall ((x_54399 Int))
	(diseqInt (S_436 x_54399) Z_1951)))
(assert (forall ((x_54400 Int) (x_54401 Int))
	(=> (diseqInt x_54400 x_54401) (diseqInt (S_436 x_54400) (S_436 x_54401)))))
(declare-fun add_349 (Int Int Int) Bool)
(declare-fun minus_344 (Int Int Int) Bool)
(declare-fun le_323 (Int Int) Bool)
(declare-fun ge_323 (Int Int) Bool)
(declare-fun lt_343 (Int Int) Bool)
(declare-fun gt_326 (Int Int) Bool)
(declare-fun mult_323 (Int Int Int) Bool)
(declare-fun div_323 (Int Int Int) Bool)
(declare-fun mod_325 (Int Int Int) Bool)
(assert (forall ((y_2186 Int))
	(add_349 y_2186 Z_1951 y_2186)))
(assert (forall ((x_54371 Int) (y_2186 Int) (r_396 Int))
	(=> (add_349 r_396 x_54371 y_2186) (add_349 (S_436 r_396) (S_436 x_54371) y_2186))))
(assert (forall ((y_2186 Int))
	(minus_344 Z_1951 Z_1951 y_2186)))
(assert (forall ((x_54371 Int) (y_2186 Int) (r_396 Int))
	(=> (minus_344 r_396 x_54371 y_2186) (minus_344 (S_436 r_396) (S_436 x_54371) y_2186))))
(assert (forall ((y_2186 Int))
	(le_323 Z_1951 y_2186)))
(assert (forall ((x_54371 Int) (y_2186 Int))
	(=> (le_323 x_54371 y_2186) (le_323 (S_436 x_54371) (S_436 y_2186)))))
(assert (forall ((y_2186 Int))
	(ge_323 y_2186 Z_1951)))
(assert (forall ((x_54371 Int) (y_2186 Int))
	(=> (ge_323 x_54371 y_2186) (ge_323 (S_436 x_54371) (S_436 y_2186)))))
(assert (forall ((y_2186 Int))
	(lt_343 Z_1951 (S_436 y_2186))))
(assert (forall ((x_54371 Int) (y_2186 Int))
	(=> (lt_343 x_54371 y_2186) (lt_343 (S_436 x_54371) (S_436 y_2186)))))
(assert (forall ((y_2186 Int))
	(gt_326 (S_436 y_2186) Z_1951)))
(assert (forall ((x_54371 Int) (y_2186 Int))
	(=> (gt_326 x_54371 y_2186) (gt_326 (S_436 x_54371) (S_436 y_2186)))))
(assert (forall ((y_2186 Int))
	(mult_323 Z_1951 Z_1951 y_2186)))
(assert (forall ((x_54371 Int) (y_2186 Int) (r_396 Int) (z_1952 Int))
	(=> (and (mult_323 r_396 x_54371 y_2186) (add_349 z_1952 r_396 y_2186)) (mult_323 z_1952 (S_436 x_54371) y_2186))))
(assert (forall ((x_54371 Int) (y_2186 Int))
	(=> (lt_343 x_54371 y_2186) (div_323 Z_1951 x_54371 y_2186))))
(assert (forall ((x_54371 Int) (y_2186 Int) (r_396 Int) (z_1952 Int))
	(=> (and (ge_323 x_54371 y_2186) (minus_344 z_1952 x_54371 y_2186) (div_323 r_396 z_1952 y_2186)) (div_323 (S_436 r_396) x_54371 y_2186))))
(assert (forall ((x_54371 Int) (y_2186 Int))
	(=> (lt_343 x_54371 y_2186) (mod_325 x_54371 x_54371 y_2186))))
(assert (forall ((x_54371 Int) (y_2186 Int) (r_396 Int) (z_1952 Int))
	(=> (and (ge_323 x_54371 y_2186) (minus_344 z_1952 x_54371 y_2186) (mod_325 r_396 z_1952 y_2186)) (mod_325 r_396 x_54371 y_2186))))
(declare-datatypes ((list_228 0)) (((nil_258) (cons_228 (head_456 Int) (tail_456 list_228)))))
(declare-fun diseqlist_228 (list_228 list_228) Bool)
(declare-fun head_457 (Int list_228) Bool)
(declare-fun tail_457 (list_228 list_228) Bool)
(declare-fun isnil_258 (list_228) Bool)
(declare-fun iscons_228 (list_228) Bool)
(assert (forall ((x_54373 Int) (x_54374 list_228))
	(head_457 x_54373 (cons_228 x_54373 x_54374))))
(assert (forall ((x_54373 Int) (x_54374 list_228))
	(tail_457 x_54374 (cons_228 x_54373 x_54374))))
(assert (isnil_258 nil_258))
(assert (forall ((x_54376 Int) (x_54377 list_228))
	(iscons_228 (cons_228 x_54376 x_54377))))
(assert (forall ((x_54378 Int) (x_54379 list_228))
	(diseqlist_228 nil_258 (cons_228 x_54378 x_54379))))
(assert (forall ((x_54380 Int) (x_54381 list_228))
	(diseqlist_228 (cons_228 x_54380 x_54381) nil_258)))
(assert (forall ((x_54382 Int) (x_54383 list_228) (x_54384 Int) (x_54385 list_228))
	(=> (diseqInt x_54382 x_54384) (diseqlist_228 (cons_228 x_54382 x_54383) (cons_228 x_54384 x_54385)))))
(assert (forall ((x_54382 Int) (x_54383 list_228) (x_54384 Int) (x_54385 list_228))
	(=> (diseqlist_228 x_54383 x_54385) (diseqlist_228 (cons_228 x_54382 x_54383) (cons_228 x_54384 x_54385)))))
(declare-fun diseqInt (Int Int) Bool)
(declare-fun projS_159 (Int Int) Bool)
(declare-fun isZ_402 (Int) Bool)
(declare-fun isS_402 (Int) Bool)
(assert (forall ((x_54387 Int))
	(projS_159 x_54387 (S_435 x_54387))))
(assert (isZ_402 Z_1948))
(assert (forall ((x_54389 Int))
	(isS_402 (S_435 x_54389))))
(assert (forall ((x_54390 Int))
	(diseqInt Z_1948 (S_435 x_54390))))
(assert (forall ((x_54391 Int))
	(diseqInt (S_435 x_54391) Z_1948)))
(assert (forall ((x_54392 Int) (x_54393 Int))
	(=> (diseqInt x_54392 x_54393) (diseqInt (S_435 x_54392) (S_435 x_54393)))))
(declare-fun length_44 (Int list_228) Bool)
(assert (forall ((x_54353 Int) (y_2181 Int) (xs_622 list_228))
	(=> (length_44 x_54353 xs_622) (length_44 (S_435 x_54353) (cons_228 y_2181 xs_622)))))
(assert (length_44 Z_1948 nil_258))
(declare-fun x_54346 (Int Int Int) Bool)
(assert (forall ((x_54356 Int) (z_1949 Int) (y_2182 Int))
	(=> (x_54346 x_54356 z_1949 y_2182) (x_54346 (S_435 x_54356) (S_435 z_1949) y_2182))))
(assert (forall ((x_54357 Int))
	(x_54346 x_54357 Z_1948 x_54357)))
(declare-fun x_54348 (list_228 list_228 list_228) Bool)
(assert (forall ((x_54359 list_228) (z_1950 Int) (xs_623 list_228) (y_2183 list_228))
	(=> (x_54348 x_54359 xs_623 y_2183) (x_54348 (cons_228 z_1950 x_54359) (cons_228 z_1950 xs_623) y_2183))))
(assert (forall ((x_54360 list_228))
	(x_54348 x_54360 nil_258 x_54360)))
(declare-fun rev_8 (list_228 list_228) Bool)
(assert (forall ((x_54361 list_228) (x_54362 list_228) (y_2184 Int) (xs_624 list_228))
	(=> (and (rev_8 x_54362 xs_624) (x_54348 x_54361 x_54362 (cons_228 y_2184 nil_258))) (rev_8 x_54361 (cons_228 y_2184 xs_624)))))
(assert (rev_8 nil_258 nil_258))
(assert (forall ((x_54365 list_228) (x_54366 list_228) (x_54367 Int) (x_54368 Int) (x_54369 Int) (x_54370 Int) (x_54351 list_228) (y_2185 list_228))
	(=> (and true (diseqInt x_54367 x_54370) (x_54348 x_54365 x_54351 y_2185) (rev_8 x_54366 x_54365) (length_44 x_54367 x_54366) (length_44 x_54368 x_54351) (length_44 x_54369 y_2185) (x_54346 x_54370 x_54368 x_54369)) false)))
(check-sat)
